(set-option :produce-models true)
(set-logic QF_UF)
(declare-fun p10() Bool)
(declare-fun p21() Bool)
(declare-fun p7() Bool)
(declare-fun p14() Bool)
(declare-fun p18() Bool)
(declare-fun p16() Bool)
(declare-fun p1() Bool)
(declare-fun p8() Bool)
(declare-fun p15() Bool)
(declare-fun p4() Bool)
(declare-fun p19() Bool)
(declare-fun p23() Bool)
(declare-fun p13() Bool)
(declare-fun p11() Bool)
(declare-fun p5() Bool)
(declare-fun p22() Bool)
(declare-fun p24() Bool)
(declare-fun p17() Bool)
(declare-fun p6() Bool)
(declare-fun p2() Bool)
(declare-fun p3() Bool)
(declare-fun p9() Bool)
(declare-fun p0() Bool)
(declare-fun p12() Bool)
(declare-fun p20() Bool)
(assert
(and (or (not p10) p21 p7) (or (not p14) p18 p16) (or (not p1) p8 (not p15)) (or p7 p4 p7) (or p19 p23 p13) (or p16 p11 p7) (or (not p7) (not p5) (not p21)) (or (not p22) p11 (not p15)) (or (not p11) p24 p16) (or (not p17) p6 p17) (or p18 p2 p17) (or p15 (not p3) (not p14)) (or (not p8) (not p5) p7) (or (not p7) (not p15) (not p9)) (or (not p5) (not p13) (not p3)) (or p2 p22 (not p10)) (or (not p24) (not p16) (not p16)) (or (not p18) (not p4) (not p0)) (or p19 p14 p6) (or (not p6) (not p3) p14) (or p6 p6 p22) (or (not p17) (not p16) p6) (or p9 (not p22) (not p3)) (or (not p12) p19 (not p9)) (or (not p20) p18 p21) (or (not p7) (not p23) p9) (or p13 (not p21) (not p22)) (or p4 (not p15) p10) (or (not p4) p8 (not p0)) (or p20 p6 (not p16)) (or p12 p15 p18) (or p13 p23 (not p5)) (or p8 p22 p11) (or (not p3) (not p18) p6) (or p9 (not p23) (not p19)) (or p7 (not p18) p1) (or p0 (not p12) p16) (or (not p13) p16 (not p23)) (or p4 (not p18) (not p23)) (or (not p19) p0 (not p10)) (or p11 (not p5) (not p22)) (or p2 p21 p0) (or (not p20) p15 (not p3)) (or p1 (not p6) (not p13)) (or (not p21) (not p12) (not p2)) (or (not p1) p1 (not p5)) (or p4 (not p15) (not p11)) (or p7 (not p14) (not p8)) (or p14 p2 (not p19)) (or (not p3) (not p4) (not p21)) (or p16 p14 p11) (or (not p3) (not p13) p21) (or p2 (not p7) (not p14)) (or p12 p22 p12) (or (not p24) p5 (not p18)) (or (not p19) (not p17) p7) (or (not p6) (not p11) (not p1)) (or p11 p0 p10) (or p19 (not p4) (not p2)) (or p1 (not p6) (not p22)) (or p13 p15 p15) (or p18 p24 (not p12)) (or (not p18) p14 p13) (or (not p3) p20 (not p22)) (or (not p13) p3 (not p13)) (or (not p19) p23 (not p17)) (or (not p20) p0 p23) (or (not p7) (not p24) p21) (or (not p5) p11 (not p11)) (or (not p15) (not p14) (not p21)) (or (not p19) (not p12) (not p0)) (or (not p17) (not p14) p15) (or p13 (not p15) (not p13)) (or (not p0) p11 (not p3)) (or (not p5) p6 p17) (or (not p11) p2 (not p12)) (or p12 (not p22) (not p7)) (or (not p9) p17 (not p14)) (or (not p1) (not p9) (not p17)) (or (not p19) p12 (not p18)) (or (not p15) p7 p16) (or p12 (not p17) (not p20)) (or p21 p6 p3) (or (not p17) (not p19) p19) (or (not p15) (not p10) p0) (or p0 (not p20) p22) (or (not p2) p4 (not p15)) (or (not p8) p3 p24) (or (not p10) (not p24) p17) (or p6 p16 (not p8)) (or (not p3) p8 (not p15)) (or p4 p9 (not p15)) (or p8 (not p6) p19) (or p6 (not p4) (not p19)) (or p24 (not p7) (not p19)) (or p3 p15 (not p11)) (or (not p2) (not p10) (not p10)) (or (not p17) (not p17) p12) (or (not p15) (not p8) p5) (or (not p22) (not p3) p6) (or (not p3) (not p13) p5) (or (not p20) (not p11) (not p15)) (or (not p9) (not p19) p24) (or p24 p8 p21) (or (not p9) p15 (not p0)) (or p13 p11 p13) (or p2 (not p15) p3))
)
(check-sat)
(get-model)
